id: 1358
name: vpphard2
group: miplib2010
method: 1

Gurobi 7.0.2 (linux64, Matlab) logging started Sat Apr 21 02:09:06 2018


Gurobi 7.0.2 (linux64) logging started Sat Apr 21 02:09:06 2018

Optimize a model with 198450 rows, 199999 columns and 648340 nonzeros
Coefficient statistics:
  Matrix range     [1e+00, 1e+00]
  Objective range  [1e+00, 1e+00]
  Bounds range     [1e+00, 1e+00]
  RHS range        [1e+00, 8e+00]
Presolve removed 62051 rows and 60765 columns
Presolve time: 0.15s
Presolved: 136399 rows, 139234 columns, 561958 nonzeros

Iteration    Objective       Primal Inf.    Dual Inf.      Time
       0    0.0000000e+00   4.691000e+03   0.000000e+00      0s
    3069    0.0000000e+00   0.000000e+00   0.000000e+00      1s

Solved in 3069 iterations and 0.92 seconds
Optimal objective  0.000000000e+00
status: OPTIMAL
